NComp = 5;
NMachine = 80;
NLocalisations=4;
NOS=2;
NAlone=0;
NFlow = 0;
NFourn = 2;
NMoisLocation = 1;
NConcurrence =0;

%Rapport localisation et os / entier
Localisations = ["Suisse","France","Etats-Unis","Italie"];
OS = ["Windows","Linux"];
Fournisseurs = ["Microsoft","Amazon"];

%Spec Composant
%Array des OS array[1..NComp, 1..NOS] of int
CompOs = [| 1,0,| 1,0, | 1,0, | 0,1, | 0,1, |];

%Array des localisations array[1..NComp, 1..NLocalisations] of int
CompLoc = [| 0,1,0,0, | 0,1,0,0, | 0,1,0,0, | 1,0,0,0, | 1,0,0,0, |]; 

%Array des memoires array[1..Ncomp] of int
CompMem = [4,8,4,4,8];

%Array des processeurs array[1..Ncomp] of int
CompProc = [2,2,4,4,2];

%Liste des composants soumis à Alone
CompAlone = [];

%Liste des composants soumis à Flow
CompFlow = [];
%Liste des composants soumis à Concurrence
CompConcurrence=[];

%Spec Machine
%Array des OS array[1..NMachine] of int
VMOs =   [2,1,1,1,2,2,1,1,2,2,2,1,1,1,2,2,1,1,2,2,2,1,1,1,2,2,1,1,2,2,2,1,1,1,2,2,1,1,2,2,2,1,1,1,2,2,1,1,2,2,2,1,1,1,2,2,1,1,2,2,2,1,1,1,2,2,1,1,2,2,2,1,1,1,2,2,1,1,2,2];

%Array des localisations array[1..NMachine] of int
VMLoc =  [1,2,2,2,1,1,3,3,3,4,1,2,2,2,1,1,3,3,3,4,1,2,2,2,1,1,3,3,3,4,1,2,2,2,1,1,3,3,3,4,1,2,2,2,1,1,3,3,3,4,1,2,2,2,1,1,3,3,3,4,1,2,2,2,1,1,3,3,3,4,1,2,2,2,1,1,3,3,3,4];

%Array des memoires array[1..NMachine] of int
VMMem =  [16,8,8,8,8,8,8,8,16,32,16,8,8,8,8,8,8,8,16,32,16,8,8,8,8,8,8,8,16,32,16,8,8,8,8,8,8,8,16,32,16,8,8,8,8,8,8,8,16,32,16,8,8,8,8,8,8,8,16,32,16,8,8,8,8,8,8,8,16,32,16,8,8,8,8,8,8,8,16,32];

%Array des processeurs array[1..NMachine] of int
VMProc = [8,4,4,4,8,2,2,8,8,4,8,4,4,4,8,2,2,8,8,4,8,4,4,4,8,2,2,8,8,4,8,4,4,4,8,2,2,8,8,4,8,4,4,4,8,2,2,8,8,4,8,4,4,4,8,2,2,8,8,4,8,4,4,4,8,2,2,8,8,4,8,4,4,4,8,2,2,8,8,4];



%Array dess cout array[1..NMachine] of int
VMCout = [100,50,60,30,40,78,32,40,100,120,100,50,60,30,40,78,32,40,100,120,100,50,60,30,40,78,32,40,100,120,100,50,60,30,40,78,32,40,100,120,100,50,60,30,40,78,32,40,100,120,100,50,60,30,40,78,32,40,100,120,100,50,60,30,40,78,32,40,100,120,100,50,60,30,40,78,32,40,100,120];

%Liste des fournisseurs des VM (exemple : 1 = Microsoft, 2 = Amazon)
VMFourn = [1,2,1,2,1,2,1,2,1,2,
          1,2,1,2,1,2,1,2,1,2,
          1,2,1,2,1,2,1,2,1,2,
          1,2,1,2,1,2,1,2,1,2,
          1,2,1,2,1,2,1,2,1,2,
          1,2,1,2,1,2,1,2,1,2,
          1,2,1,2,1,2,1,2,1,2,
          1,2,1,2,1,2,1,2,1,2];

% Prix des liens entre fournisseurs 
VMPrixLien = [| 1, 2,
              | 2, 1|];
